c Random Network
p max    10      20
n         1  s
n        10  t
a       2       1       2
a       2       8      46
a       1       6       9
a       8       3      34
a       1       2      40
a       3       7      39
a       9       7      13
a       1       5      44
a       5       1      21
a      10       8       9
a       8       2      36
a       2       7      22
a       4       9      36
a       7       5      11
a       5       7      23
a       6       7      47
a       4       1       6
a       2       4      16
a       1       3      21
a       7       2       8
